p tw 112 122
1 2
2 25
3 14
3 32
4 8
5 6
6 7
7 8
8 9
9 10
10 11
11 15
12 13
13 15
14 17
15 16
17 18
17 15
18 19
19 20
20 21
20 24
21 22
22 23
23 24
24 26
25 36
26 27
27 28
28 29
29 30
30 31
31 15
32 33
33 34
34 35
34 85
35 37
36 47
37 38
38 39
39 40
40 41
41 42
41 51
42 43
43 44
44 45
45 46
46 48
47 58
48 49
49 50
50 15
51 52
52 53
53 54
54 55
55 56
56 57
57 59
58 69
59 60
60 61
61 62
62 63
63 64
64 65
65 66
66 67
67 68
68 70
69 80
69 14
70 71
71 72
72 73
73 74
74 75
75 76
76 77
77 78
78 79
79 81
80 91
81 82
82 83
83 84
84 15
85 86
86 87
86 12
87 88
88 89
88 5
89 90
90 92
91 102
91 14
92 93
92 8
93 94
94 95
95 96
96 97
96 100
97 98
98 99
99 100
100 101
101 103
102 3
103 104
104 105
105 106
106 107
107 108
108 109
109 110
110 111
111 112
112 4
